max: +x11+x12+x13+x14+x15+x21+x22+x23+x24+x25+x31+x32+x33+x34+x35+x41+x42+x43+x44+x45+x51+x52+x53+x54+x55;
+x23+x32-1x11 >= 0;
+x31+x24+x33-1x12 >= 0;
+x32+x21+x25+x34-1x13 >= 0;
+x33+x22+x35-1x14 >= 0;
+x34+x23-1x15 >= 0;
+x13+x33+x42-1x21 >= 0;
+x14+x41+x34+x43-1x22 >= 0;
+x11+x15+x42+x31+x35+x44-1x23 >= 0;
+x12+x43+x32+x45-1x24 >= 0;
+x13+x44+x33-1x25 >= 0;
+x23+x12+x43+x52-1x31 >= 0;
+x11+x24+x51+x13+x44+x53-1x32 >= 0;
+x21+x12+x25+x52+x41+x14+x45+x54-1x33 >= 0;
+x22+x13+x53+x42+x15+x55-1x34 >= 0;
+x23+x14+x54+x43-1x35 >= 0;
+x33+x22+x53-1x41 >= 0;
+x21+x34+x23+x54-1x42 >= 0;
+x31+x22+x35+x51+x24+x55-1x43 >= 0;
+x32+x23+x52+x25-1x44 >= 0;
+x33+x24+x53-1x45 >= 0;
+x43+x32-1x51 >= 0;
+x31+x44+x33-1x52 >= 0;
+x41+x32+x45+x34-1x53 >= 0;
+x42+x33+x35-1x54 >= 0;
+x43+x34-1x55 >= 0;
+x23+x32+7x11 <= 8;
+x31+x24+x33+7x12 <= 8;
+x32+x21+x25+x34+7x13 <= 8;
+x33+x22+x35+7x14 <= 8;
+x34+x23+7x15 <= 8;
+x13+x33+x42+7x21 <= 8;
+x14+x41+x34+x43+7x22 <= 8;
+x11+x15+x42+x31+x35+x44+7x23 <= 8;
+x12+x43+x32+x45+7x24 <= 8;
+x13+x44+x33+7x25 <= 8;
+x23+x12+x43+x52+7x31 <= 8;
+x11+x24+x51+x13+x44+x53+7x32 <= 8;
+x21+x12+x25+x52+x41+x14+x45+x54+7x33 <= 8;
+x22+x13+x53+x42+x15+x55+7x34 <= 8;
+x23+x14+x54+x43+7x35 <= 8;
+x33+x22+x53+7x41 <= 8;
+x21+x34+x23+x54+7x42 <= 8;
+x31+x22+x35+x51+x24+x55+7x43 <= 8;
+x32+x23+x52+x25+7x44 <= 8;
+x33+x24+x53+7x45 <= 8;
+x43+x32+7x51 <= 8;
+x31+x44+x33+7x52 <= 8;
+x41+x32+x45+x34+7x53 <= 8;
+x42+x33+x35+7x54 <= 8;
+x43+x34+7x55 <= 8;
bin x11,x12,x13,x14,x15,x21,x22,x23,x24,x25,x31,x32,x33,x34,x35,x41,x42,x43,x44,x45,x51,x52,x53,x54,x55;